(set-logic QF_S)
(declare-fun var0 () String)
(assert (str.in.re var0 (re.++ (re.union (re.* (str.to.re "000")) (re.* (str.to.re "111"))) (re.++ (re.* (re.+ (str.to.re "22"))) (re.++ (re.* (re.+ (str.to.re "333"))) (re.++ (re.union (re.+ (str.to.re "44")) (re.+ (str.to.re "5"))) (re.++ (re.+ (re.* (str.to.re "66"))) (re.++ (re.* (re.+ (str.to.re "77"))) (re.++ (re.* (re.union (str.to.re "888") (str.to.re "9"))) (re.++ (re.* (re.* (str.to.re "aaa"))) (re.++ (re.+ (re.* (str.to.re "bb"))) (re.++ (re.* (re.+ (str.to.re "c"))) (re.++ (re.+ (re.+ (str.to.re "d"))) (re.++ (re.union (re.+ (str.to.re "e")) (re.+ (str.to.re "fff"))) (re.++ (re.+ (re.union (str.to.re "ggg") (str.to.re "hh"))) (re.++ (re.union (re.+ (str.to.re "iii")) (re.+ (str.to.re "jj"))) (re.++ (re.* (re.+ (str.to.re "k"))) (re.++ (re.* (re.union (str.to.re "l") (str.to.re "mmm"))) (re.++ (re.union (re.union (str.to.re "nnn") (str.to.re "o")) (re.union (str.to.re "p") (str.to.re "q"))) (re.++ (re.+ (re.union (str.to.re "rrr") (str.to.re "ss"))) (re.++ (re.union (re.* (str.to.re "t")) (re.* (str.to.re "uuu"))) (re.++ (re.+ (re.union (str.to.re "v") (str.to.re "ww"))) (re.++ (re.* (re.union (str.to.re "xxx") (str.to.re "yy"))) (re.++ (re.* (re.+ (str.to.re "zzz"))) (re.++ (re.union (re.+ (str.to.re "AA")) (re.+ (str.to.re "BBB"))) (re.++ (re.union (re.* (str.to.re "CC")) (re.* (str.to.re "DD"))) (re.++ (re.union (re.union (str.to.re "E") (str.to.re "F")) (re.union (str.to.re "GG") (str.to.re "HH"))) (re.++ (re.* (re.+ (str.to.re "II"))) (re.++ (re.union (re.+ (str.to.re "J")) (re.+ (str.to.re "KK"))) (re.++ (re.* (re.+ (str.to.re "LLL"))) (re.++ (re.union (re.union (str.to.re "MM") (str.to.re "NN")) (re.union (str.to.re "OOO") (str.to.re "PPP"))) (re.++ (re.+ (re.union (str.to.re "Q") (str.to.re "RRR"))) (re.++ (re.+ (re.union (str.to.re "SS") (str.to.re "T"))) (re.++ (re.+ (re.* (str.to.re "U"))) (re.++ (re.union (re.union (str.to.re "VVV") (str.to.re "W")) (re.union (str.to.re "XX") (str.to.re "YY"))) (re.++ (re.* (re.+ (str.to.re "Z"))) (re.++ (re.union (re.+ (str.to.re "!!")) (re.+ (str.to.re """"))) (re.++ (re.union (re.* (str.to.re "###")) (re.* (str.to.re "$$"))) (re.++ (re.* (re.+ (str.to.re "%%"))) (re.++ (re.union (re.union (str.to.re "&&&") (str.to.re "'''")) (re.union (str.to.re "(") (str.to.re "))"))) (re.+ (re.* (str.to.re "**")))))))))))))))))))))))))))))))))))))))))))
(check-sat)